\* metodo2 *\
Maximize
Total_de_calorias: 122.4 Alim_Aceite_de_girasol + 655.381 Alim_Arroz_blanco
 + 163.4125 Alim_Carne_de_vaca
Subject To
Limite_inferior_de_proteinas: 13.1905 Alim_Arroz_blanco
 + 16.507 Alim_Carne_de_vaca >= 49.3272
_C1: 122.4 Alim_Aceite_de_girasol + 655.381 Alim_Arroz_blanco
 + 163.4125 Alim_Carne_de_vaca <= 584.435210227
_C2: 122.4 Alim_Aceite_de_girasol + 655.381 Alim_Arroz_blanco
 + 163.4125 Alim_Carne_de_vaca <= 525.991689205
End
